p wcnf 308 872
w -2 0.367879 0
w 2 2.718282 0
w -3 0.367879 0
w 3 2.718282 0
w -4 0.367879 0
w 4 2.718282 0
w -5 0.367879 0
w 5 2.718282 0
w -6 0.367879 0
w 6 2.718282 0
w -7 0.367879 0
w 7 2.718282 0
w -9 0.367879 0
w 9 2.718282 0
w -10 0.367879 0
w 10 2.718282 0
w -11 0.367879 0
w 11 2.718282 0
w -12 0.367879 0
w 12 2.718282 0
w -14 0.367879 0
w 14 2.718282 0
w -15 0.367879 0
w 15 2.718282 0
w -16 0.367879 0
w 16 2.718282 0
w -17 0.367879 0
w 17 2.718282 0
w -18 0.367879 0
w 18 2.718282 0
w -20 0.367879 0
w 20 2.718282 0
w -21 0.367879 0
w 21 2.718282 0
w -22 0.367879 0
w 22 2.718282 0
w -23 0.367879 0
w 23 2.718282 0
w -24 0.367879 0
w 24 2.718282 0
w -25 0.367879 0
w 25 2.718282 0
w -26 0.367879 0
w 26 2.718282 0
w -27 0.367879 0
w 27 2.718282 0
w -28 0.367879 0
w 28 2.718282 0
w -30 0.367879 0
w 30 2.718282 0
w -31 0.367879 0
w 31 2.718282 0
w -32 0.367879 0
w 32 2.718282 0
w -33 0.367879 0
w 33 2.718282 0
w -34 0.367879 0
w 34 2.718282 0
w -35 0.367879 0
w 35 2.718282 0
w -36 0.367879 0
w 36 2.718282 0
w -38 0.367879 0
w 38 2.718282 0
w -39 0.367879 0
w 39 2.718282 0
w -40 0.367879 0
w 40 2.718282 0
w -41 0.367879 0
w 41 2.718282 0
w -42 0.367879 0
w 42 2.718282 0
w -43 0.367879 0
w 43 2.718282 0
w -45 0.367879 0
w 45 2.718282 0
w -46 0.367879 0
w 46 2.718282 0
w -47 0.367879 0
w 47 2.718282 0
w -48 0.367879 0
w 48 2.718282 0
w -49 0.367879 0
w 49 2.718282 0
w -51 0.367879 0
w 51 2.718282 0
w -52 0.367879 0
w 52 2.718282 0
w -53 0.367879 0
w 53 2.718282 0
w -54 0.367879 0
w 54 2.718282 0
w -55 0.367879 0
w 55 2.718282 0
w -57 0.367879 0
w 57 2.718282 0
w -58 0.367879 0
w 58 2.718282 0
w -59 0.367879 0
w 59 2.718282 0
w -60 0.367879 0
w 60 2.718282 0
w -61 0.367879 0
w 61 2.718282 0
w -62 0.367879 0
w 62 2.718282 0
w -63 0.367879 0
w 63 2.718282 0
w -65 0.367879 0
w 65 2.718282 0
w -66 0.367879 0
w 66 2.718282 0
w -67 0.367879 0
w 67 2.718282 0
w -69 0.367879 0
w 69 2.718282 0
w -70 0.367879 0
w 70 2.718282 0
w -71 0.367879 0
w 71 2.718282 0
w -72 0.367879 0
w 72 2.718282 0
w -73 0.367879 0
w 73 2.718282 0
w -75 0.367879 0
w 75 2.718282 0
w -76 0.367879 0
w 76 2.718282 0
w -77 0.367879 0
w 77 2.718282 0
w -78 0.367879 0
w 78 2.718282 0
w -79 0.367879 0
w 79 2.718282 0
w -80 0.367879 0
w 80 2.718282 0
w -82 0.367879 0
w 82 2.718282 0
w -83 0.367879 0
w 83 2.718282 0
w -84 0.367879 0
w 84 2.718282 0
w -85 0.367879 0
w 85 2.718282 0
w -86 0.367879 0
w 86 2.718282 0
w -87 0.367879 0
w 87 2.718282 0
w -89 0.367879 0
w 89 2.718282 0
w -90 0.367879 0
w 90 2.718282 0
w -92 0.367879 0
w 92 2.718282 0
w -93 0.367879 0
w 93 2.718282 0
w -94 0.367879 0
w 94 2.718282 0
w -95 0.367879 0
w 95 2.718282 0
w -96 0.367879 0
w 96 2.718282 0
w -98 0.367879 0
w 98 2.718282 0
w -99 0.367879 0
w 99 2.718282 0
w -101 0.367879 0
w 101 2.718282 0
w -102 0.367879 0
w 102 2.718282 0
w -103 0.367879 0
w 103 2.718282 0
w -104 0.367879 0
w 104 2.718282 0
w -105 0.367879 0
w 105 2.718282 0
w -107 0.367879 0
w 107 2.718282 0
w -108 0.367879 0
w 108 2.718282 0
w -109 0.367879 0
w 109 2.718282 0
w -110 0.367879 0
w 110 2.718282 0
w -111 0.367879 0
w 111 2.718282 0
w -112 0.367879 0
w 112 2.718282 0
w -113 0.367879 0
w 113 2.718282 0
w -115 0.367879 0
w 115 2.718282 0
w -116 0.367879 0
w 116 2.718282 0
w -118 0.367879 0
w 118 2.718282 0
w -119 0.367879 0
w 119 2.718282 0
w -120 0.367879 0
w 120 2.718282 0
w -121 0.367879 0
w 121 2.718282 0
w -123 0.367879 0
w 123 2.718282 0
w -124 0.367879 0
w 124 2.718282 0
w -125 0.367879 0
w 125 2.718282 0
w -126 0.367879 0
w 126 2.718282 0
w -128 0.367879 0
w 128 2.718282 0
w -130 0.367879 0
w 130 2.718282 0
w -131 0.367879 0
w 131 2.718282 0
w -132 0.367879 0
w 132 2.718282 0
w -133 0.367879 0
w 133 2.718282 0
w -135 0.367879 0
w 135 2.718282 0
w -136 0.367879 0
w 136 2.718282 0
w -138 0.367879 0
w 138 2.718282 0
w -139 0.367879 0
w 139 2.718282 0
w -140 0.367879 0
w 140 2.718282 0
w -141 0.367879 0
w 141 2.718282 0
w -143 0.367879 0
w 143 2.718282 0
w -144 0.367879 0
w 144 2.718282 0
w -145 0.367879 0
w 145 2.718282 0
w -147 0.367879 0
w 147 2.718282 0
w -148 0.367879 0
w 148 2.718282 0
w -149 0.367879 0
w 149 2.718282 0
w -150 0.367879 0
w 150 2.718282 0
w -153 0.367879 0
w 153 2.718282 0
w -154 0.367879 0
w 154 2.718282 0
w -155 0.367879 0
w 155 2.718282 0
w -157 0.367879 0
w 157 2.718282 0
w -158 0.367879 0
w 158 2.718282 0
w -160 0.367879 0
w 160 2.718282 0
w -162 0.367879 0
w 162 2.718282 0
w -163 0.367879 0
w 163 2.718282 0
w -164 0.367879 0
w 164 2.718282 0
w -165 0.367879 0
w 165 2.718282 0
w -166 0.367879 0
w 166 2.718282 0
w -168 0.367879 0
w 168 2.718282 0
w -169 0.367879 0
w 169 2.718282 0
w -170 0.367879 0
w 170 2.718282 0
w -171 0.367879 0
w 171 2.718282 0
w -172 0.367879 0
w 172 2.718282 0
w -174 0.367879 0
w 174 2.718282 0
w -175 0.367879 0
w 175 2.718282 0
w -176 0.367879 0
w 176 2.718282 0
w -177 0.367879 0
w 177 2.718282 0
w -179 0.367879 0
w 179 2.718282 0
w -180 0.367879 0
w 180 2.718282 0
w -181 0.367879 0
w 181 2.718282 0
w -183 0.367879 0
w 183 2.718282 0
w -185 0.367879 0
w 185 2.718282 0
w -187 0.367879 0
w 187 2.718282 0
w -188 0.367879 0
w 188 2.718282 0
w -189 0.367879 0
w 189 2.718282 0
w -190 0.367879 0
w 190 2.718282 0
w -192 0.367879 0
w 192 2.718282 0
w -193 0.367879 0
w 193 2.718282 0
w -194 0.367879 0
w 194 2.718282 0
w -195 0.367879 0
w 195 2.718282 0
w -196 0.367879 0
w 196 2.718282 0
w -198 0.367879 0
w 198 2.718282 0
w -199 0.367879 0
w 199 2.718282 0
w -200 0.367879 0
w 200 2.718282 0
w -201 0.367879 0
w 201 2.718282 0
w -202 0.367879 0
w 202 2.718282 0
w -204 0.367879 0
w 204 2.718282 0
w -207 0.367879 0
w 207 2.718282 0
w -208 0.367879 0
w 208 2.718282 0
w -209 0.367879 0
w 209 2.718282 0
w -210 0.367879 0
w 210 2.718282 0
w -211 0.367879 0
w 211 2.718282 0
w -213 0.367879 0
w 213 2.718282 0
w -214 0.367879 0
w 214 2.718282 0
w -215 0.367879 0
w 215 2.718282 0
w -217 0.367879 0
w 217 2.718282 0
w -218 0.367879 0
w 218 2.718282 0
w -219 0.367879 0
w 219 2.718282 0
w -221 0.367879 0
w 221 2.718282 0
w -222 0.367879 0
w 222 2.718282 0
w -223 0.367879 0
w 223 2.718282 0
w -226 0.367879 0
w 226 2.718282 0
w -227 0.367879 0
w 227 2.718282 0
w -228 0.367879 0
w 228 2.718282 0
w -229 0.367879 0
w 229 2.718282 0
w -231 0.367879 0
w 231 2.718282 0
w -232 0.367879 0
w 232 2.718282 0
w -233 0.367879 0
w 233 2.718282 0
w -235 0.367879 0
w 235 2.718282 0
w -236 0.367879 0
w 236 2.718282 0
w -240 0.367879 0
w 240 2.718282 0
w -241 0.367879 0
w 241 2.718282 0
w -242 0.367879 0
w 242 2.718282 0
w -243 0.367879 0
w 243 2.718282 0
w -244 0.367879 0
w 244 2.718282 0
w -245 0.367879 0
w 245 2.718282 0
w -247 0.367879 0
w 247 2.718282 0
w -248 0.367879 0
w 248 2.718282 0
w -249 0.367879 0
w 249 2.718282 0
w -252 0.367879 0
w 252 2.718282 0
w -254 0.367879 0
w 254 2.718282 0
w -256 0.367879 0
w 256 2.718282 0
w -257 0.367879 0
w 257 2.718282 0
w -261 0.367879 0
w 261 2.718282 0
w -263 0.367879 0
w 263 2.718282 0
w -265 0.367879 0
w 265 2.718282 0
w -266 0.367879 0
w 266 2.718282 0
w -268 0.367879 0
w 268 2.718282 0
w -270 0.367879 0
w 270 2.718282 0
w -271 0.367879 0
w 271 2.718282 0
w -273 0.367879 0
w 273 2.718282 0
w -275 0.367879 0
w 275 2.718282 0
w -278 0.367879 0
w 278 2.718282 0
w -280 0.367879 0
w 280 2.718282 0
w -282 0.367879 0
w 282 2.718282 0
w -284 0.367879 0
w 284 2.718282 0
w -285 0.367879 0
w 285 2.718282 0
w -287 0.367879 0
w 287 2.718282 0
w -288 0.367879 0
w 288 2.718282 0
w -290 0.367879 0
w 290 2.718282 0
w -293 0.367879 0
w 293 2.718282 0
w -295 0.367879 0
w 295 2.718282 0
2 1 68 0
2 -1 -68 0
-2 1 -68 0
-2 -1 68 0
3 1 117 0
3 -1 -117 0
-3 1 -117 0
-3 -1 117 0
4 1 122 0
4 -1 -122 0
-4 1 -122 0
-4 -1 122 0
5 1 167 0
5 -1 -167 0
-5 1 -167 0
-5 -1 167 0
6 1 267 0
6 -1 -267 0
-6 1 -267 0
-6 -1 267 0
7 1 304 0
7 -1 -304 0
-7 1 -304 0
-7 -1 304 0
9 8 212 0
9 -8 -212 0
-9 8 -212 0
-9 -8 212 0
10 8 220 0
10 -8 -220 0
-10 8 -220 0
-10 -8 220 0
11 8 239 0
11 -8 -239 0
-11 8 -239 0
-11 -8 239 0
12 8 258 0
12 -8 -258 0
-12 8 -258 0
-12 -8 258 0
14 13 68 0
14 -13 -68 0
-14 13 -68 0
-14 -13 68 0
15 13 137 0
15 -13 -137 0
-15 13 -137 0
-15 -13 137 0
16 13 152 0
16 -13 -152 0
-16 13 -152 0
-16 -13 152 0
17 13 224 0
17 -13 -224 0
-17 13 -224 0
-17 -13 224 0
18 13 305 0
18 -13 -305 0
-18 13 -305 0
-18 -13 305 0
20 19 56 0
20 -19 -56 0
-20 19 -56 0
-20 -19 56 0
21 19 167 0
21 -19 -167 0
-21 19 -167 0
-21 -19 167 0
22 19 173 0
22 -19 -173 0
-22 19 -173 0
-22 -19 173 0
23 19 216 0
23 -19 -216 0
-23 19 -216 0
-23 -19 216 0
24 19 267 0
24 -19 -267 0
-24 19 -267 0
-24 -19 267 0
25 19 294 0
25 -19 -294 0
-25 19 -294 0
-25 -19 294 0
26 19 301 0
26 -19 -301 0
-26 19 -301 0
-26 -19 301 0
27 19 303 0
27 -19 -303 0
-27 19 -303 0
-27 -19 303 0
28 19 306 0
28 -19 -306 0
-28 19 -306 0
-28 -19 306 0
30 29 122 0
30 -29 -122 0
-30 29 -122 0
-30 -29 122 0
31 29 129 0
31 -29 -129 0
-31 29 -129 0
-31 -29 129 0
32 29 167 0
32 -29 -167 0
-32 29 -167 0
-32 -29 167 0
33 29 259 0
33 -29 -259 0
-33 29 -259 0
-33 -29 259 0
34 29 269 0
34 -29 -269 0
-34 29 -269 0
-34 -29 269 0
35 29 306 0
35 -29 -306 0
-35 29 -306 0
-35 -29 306 0
36 29 307 0
36 -29 -307 0
-36 29 -307 0
-36 -29 307 0
38 37 151 0
38 -37 -151 0
-38 37 -151 0
-38 -37 151 0
39 37 203 0
39 -37 -203 0
-39 37 -203 0
-39 -37 203 0
40 37 225 0
40 -37 -225 0
-40 37 -225 0
-40 -37 225 0
41 37 230 0
41 -37 -230 0
-41 37 -230 0
-41 -37 230 0
42 37 258 0
42 -37 -258 0
-42 37 -258 0
-42 -37 258 0
43 37 302 0
43 -37 -302 0
-43 37 -302 0
-43 -37 302 0
45 44 100 0
45 -44 -100 0
-45 44 -100 0
-45 -44 100 0
46 44 206 0
46 -44 -206 0
-46 44 -206 0
-46 -44 206 0
47 44 262 0
47 -44 -262 0
-47 44 -262 0
-47 -44 262 0
48 44 269 0
48 -44 -269 0
-48 44 -269 0
-48 -44 269 0
49 44 294 0
49 -44 -294 0
-49 44 -294 0
-49 -44 294 0
51 50 134 0
51 -50 -134 0
-51 50 -134 0
-51 -50 134 0
52 50 156 0
52 -50 -156 0
-52 50 -156 0
-52 -50 156 0
53 50 294 0
53 -50 -294 0
-53 50 -294 0
-53 -50 294 0
54 50 306 0
54 -50 -306 0
-54 50 -306 0
-54 -50 306 0
55 50 307 0
55 -50 -307 0
-55 50 -307 0
-55 -50 307 0
57 56 74 0
57 -56 -74 0
-57 56 -74 0
-57 -56 74 0
58 56 134 0
58 -56 -134 0
-58 56 -134 0
-58 -56 134 0
59 56 146 0
59 -56 -146 0
-59 56 -146 0
-59 -56 146 0
60 56 184 0
60 -56 -184 0
-60 56 -184 0
-60 -56 184 0
61 56 224 0
61 -56 -224 0
-61 56 -224 0
-61 -56 224 0
62 56 250 0
62 -56 -250 0
-62 56 -250 0
-62 -56 250 0
63 56 283 0
63 -56 -283 0
-63 56 -283 0
-63 -56 283 0
65 64 161 0
65 -64 -161 0
-65 64 -161 0
-65 -64 161 0
66 64 279 0
66 -64 -279 0
-66 64 -279 0
-66 -64 279 0
67 64 297 0
67 -64 -297 0
-67 64 -297 0
-67 -64 297 0
69 68 197 0
69 -68 -197 0
-69 68 -197 0
-69 -68 197 0
70 68 267 0
70 -68 -267 0
-70 68 -267 0
-70 -68 267 0
71 68 296 0
71 -68 -296 0
-71 68 -296 0
-71 -68 296 0
72 68 300 0
72 -68 -300 0
-72 68 -300 0
-72 -68 300 0
73 68 302 0
73 -68 -302 0
-73 68 -302 0
-73 -68 302 0
75 74 205 0
75 -74 -205 0
-75 74 -205 0
-75 -74 205 0
76 74 250 0
76 -74 -250 0
-76 74 -250 0
-76 -74 250 0
77 74 259 0
77 -74 -259 0
-77 74 -259 0
-77 -74 259 0
78 74 294 0
78 -74 -294 0
-78 74 -294 0
-78 -74 294 0
79 74 301 0
79 -74 -301 0
-79 74 -301 0
-79 -74 301 0
80 74 308 0
80 -74 -308 0
-80 74 -308 0
-80 -74 308 0
82 81 134 0
82 -81 -134 0
-82 81 -134 0
-82 -81 134 0
83 81 224 0
83 -81 -224 0
-83 81 -224 0
-83 -81 224 0
84 81 225 0
84 -81 -225 0
-84 81 -225 0
-84 -81 225 0
85 81 250 0
85 -81 -250 0
-85 81 -250 0
-85 -81 250 0
86 81 262 0
86 -81 -262 0
-86 81 -262 0
-86 -81 262 0
87 81 281 0
87 -81 -281 0
-87 81 -281 0
-87 -81 281 0
89 88 151 0
89 -88 -151 0
-89 88 -151 0
-89 -88 151 0
90 88 184 0
90 -88 -184 0
-90 88 -184 0
-90 -88 184 0
92 91 114 0
92 -91 -114 0
-92 91 -114 0
-92 -91 114 0
93 91 167 0
93 -91 -167 0
-93 91 -167 0
-93 -91 167 0
94 91 197 0
94 -91 -197 0
-94 91 -197 0
-94 -91 197 0
95 91 239 0
95 -91 -239 0
-95 91 -239 0
-95 -91 239 0
96 91 283 0
96 -91 -283 0
-96 91 -283 0
-96 -91 283 0
98 97 167 0
98 -97 -167 0
-98 97 -167 0
-98 -97 167 0
99 97 297 0
99 -97 -297 0
-99 97 -297 0
-99 -97 297 0
101 100 106 0
101 -100 -106 0
-101 100 -106 0
-101 -100 106 0
102 100 225 0
102 -100 -225 0
-102 100 -225 0
-102 -100 225 0
103 100 260 0
103 -100 -260 0
-103 100 -260 0
-103 -100 260 0
104 100 269 0
104 -100 -269 0
-104 100 -269 0
-104 -100 269 0
105 100 292 0
105 -100 -292 0
-105 100 -292 0
-105 -100 292 0
107 106 197 0
107 -106 -197 0
-107 106 -197 0
-107 -106 197 0
108 106 206 0
108 -106 -206 0
-108 106 -206 0
-108 -106 206 0
109 106 225 0
109 -106 -225 0
-109 106 -225 0
-109 -106 225 0
110 106 239 0
110 -106 -239 0
-110 106 -239 0
-110 -106 239 0
111 106 258 0
111 -106 -258 0
-111 106 -258 0
-111 -106 258 0
112 106 281 0
112 -106 -281 0
-112 106 -281 0
-112 -106 281 0
113 106 302 0
113 -106 -302 0
-113 106 -302 0
-113 -106 302 0
115 114 184 0
115 -114 -184 0
-115 114 -184 0
-115 -114 184 0
116 114 299 0
116 -114 -299 0
-116 114 -299 0
-116 -114 299 0
118 117 161 0
118 -117 -161 0
-118 117 -161 0
-118 -117 161 0
119 117 225 0
119 -117 -225 0
-119 117 -225 0
-119 -117 225 0
120 117 272 0
120 -117 -272 0
-120 117 -272 0
-120 -117 272 0
121 117 306 0
121 -117 -306 0
-121 117 -306 0
-121 -117 306 0
123 122 156 0
123 -122 -156 0
-123 122 -156 0
-123 -122 156 0
124 122 212 0
124 -122 -212 0
-124 122 -212 0
-124 -122 212 0
125 122 237 0
125 -122 -237 0
-125 122 -237 0
-125 -122 237 0
126 122 302 0
126 -122 -302 0
-126 122 -302 0
-126 -122 302 0
128 127 186 0
128 -127 -186 0
-128 127 -186 0
-128 -127 186 0
130 129 167 0
130 -129 -167 0
-130 129 -167 0
-130 -129 167 0
131 129 182 0
131 -129 -182 0
-131 129 -182 0
-131 -129 182 0
132 129 251 0
132 -129 -251 0
-132 129 -251 0
-132 -129 251 0
133 129 305 0
133 -129 -305 0
-133 129 -305 0
-133 -129 305 0
135 134 220 0
135 -134 -220 0
-135 134 -220 0
-135 -134 220 0
136 134 283 0
136 -134 -283 0
-136 134 -283 0
-136 -134 283 0
138 137 173 0
138 -137 -173 0
-138 137 -173 0
-138 -137 173 0
139 137 197 0
139 -137 -197 0
-139 137 -197 0
-139 -137 197 0
140 137 230 0
140 -137 -230 0
-140 137 -230 0
-140 -137 230 0
141 137 304 0
141 -137 -304 0
-141 137 -304 0
-141 -137 304 0
143 142 283 0
143 -142 -283 0
-143 142 -283 0
-143 -142 283 0
144 142 291 0
144 -142 -291 0
-144 142 -291 0
-144 -142 291 0
145 142 294 0
145 -142 -294 0
-145 142 -294 0
-145 -142 294 0
147 146 184 0
147 -146 -184 0
-147 146 -184 0
-147 -146 184 0
148 146 203 0
148 -146 -203 0
-148 146 -203 0
-148 -146 203 0
149 146 250 0
149 -146 -250 0
-149 146 -250 0
-149 -146 250 0
150 146 277 0
150 -146 -277 0
-150 146 -277 0
-150 -146 277 0
153 152 161 0
153 -152 -161 0
-153 152 -161 0
-153 -152 161 0
154 152 253 0
154 -152 -253 0
-154 152 -253 0
-154 -152 253 0
155 152 303 0
155 -152 -303 0
-155 152 -303 0
-155 -152 303 0
157 156 203 0
157 -156 -203 0
-157 156 -203 0
-157 -156 203 0
158 156 205 0
158 -156 -205 0
-158 156 -205 0
-158 -156 205 0
160 159 291 0
160 -159 -291 0
-160 159 -291 0
-160 -159 291 0
162 161 184 0
162 -161 -184 0
-162 161 -184 0
-162 -161 184 0
163 161 237 0
163 -161 -237 0
-163 161 -237 0
-163 -161 237 0
164 161 281 0
164 -161 -281 0
-164 161 -281 0
-164 -161 281 0
165 161 286 0
165 -161 -286 0
-165 161 -286 0
-165 -161 286 0
166 161 308 0
166 -161 -308 0
-166 161 -308 0
-166 -161 308 0
168 167 182 0
168 -167 -182 0
-168 167 -182 0
-168 -167 182 0
169 167 258 0
169 -167 -258 0
-169 167 -258 0
-169 -167 258 0
170 167 267 0
170 -167 -267 0
-170 167 -267 0
-170 -167 267 0
171 167 279 0
171 -167 -279 0
-171 167 -279 0
-171 -167 279 0
172 167 306 0
172 -167 -306 0
-172 167 -306 0
-172 -167 306 0
174 173 262 0
174 -173 -262 0
-174 173 -262 0
-174 -173 262 0
175 173 267 0
175 -173 -267 0
-175 173 -267 0
-175 -173 267 0
176 173 276 0
176 -173 -276 0
-176 173 -276 0
-176 -173 276 0
177 173 299 0
177 -173 -299 0
-177 173 -299 0
-177 -173 299 0
179 178 191 0
179 -178 -191 0
-179 178 -191 0
-179 -178 191 0
180 178 239 0
180 -178 -239 0
-180 178 -239 0
-180 -178 239 0
181 178 267 0
181 -178 -267 0
-181 178 -267 0
-181 -178 267 0
183 182 269 0
183 -182 -269 0
-183 182 -269 0
-183 -182 269 0
185 184 212 0
185 -184 -212 0
-185 184 -212 0
-185 -184 212 0
187 186 216 0
187 -186 -216 0
-187 186 -216 0
-187 -186 216 0
188 186 251 0
188 -186 -251 0
-188 186 -251 0
-188 -186 251 0
189 186 289 0
189 -186 -289 0
-189 186 -289 0
-189 -186 289 0
190 186 296 0
190 -186 -296 0
-190 186 -296 0
-190 -186 296 0
192 191 239 0
192 -191 -239 0
-192 191 -239 0
-192 -191 239 0
193 191 260 0
193 -191 -260 0
-193 191 -260 0
-193 -191 260 0
194 191 281 0
194 -191 -281 0
-194 191 -281 0
-194 -191 281 0
195 191 294 0
195 -191 -294 0
-195 191 -294 0
-195 -191 294 0
196 191 307 0
196 -191 -307 0
-196 191 -307 0
-196 -191 307 0
198 197 239 0
198 -197 -239 0
-198 197 -239 0
-198 -197 239 0
199 197 258 0
199 -197 -258 0
-199 197 -258 0
-199 -197 258 0
200 197 260 0
200 -197 -260 0
-200 197 -260 0
-200 -197 260 0
201 197 277 0
201 -197 -277 0
-201 197 -277 0
-201 -197 277 0
202 197 308 0
202 -197 -308 0
-202 197 -308 0
-202 -197 308 0
204 203 237 0
204 -203 -237 0
-204 203 -237 0
-204 -203 237 0
207 206 224 0
207 -206 -224 0
-207 206 -224 0
-207 -206 224 0
208 206 230 0
208 -206 -230 0
-208 206 -230 0
-208 -206 230 0
209 206 237 0
209 -206 -237 0
-209 206 -237 0
-209 -206 237 0
210 206 250 0
210 -206 -250 0
-210 206 -250 0
-210 -206 250 0
211 206 296 0
211 -206 -296 0
-211 206 -296 0
-211 -206 296 0
213 212 216 0
213 -212 -216 0
-213 212 -216 0
-213 -212 216 0
214 212 274 0
214 -212 -274 0
-214 212 -274 0
-214 -212 274 0
215 212 303 0
215 -212 -303 0
-215 212 -303 0
-215 -212 303 0
217 216 260 0
217 -216 -260 0
-217 216 -260 0
-217 -216 260 0
218 216 262 0
218 -216 -262 0
-218 216 -262 0
-218 -216 262 0
219 216 301 0
219 -216 -301 0
-219 216 -301 0
-219 -216 301 0
221 220 258 0
221 -220 -258 0
-221 220 -258 0
-221 -220 258 0
222 220 281 0
222 -220 -281 0
-222 220 -281 0
-222 -220 281 0
223 220 292 0
223 -220 -292 0
-223 220 -292 0
-223 -220 292 0
226 225 258 0
226 -225 -258 0
-226 225 -258 0
-226 -225 258 0
227 225 277 0
227 -225 -277 0
-227 225 -277 0
-227 -225 277 0
228 225 281 0
228 -225 -281 0
-228 225 -281 0
-228 -225 281 0
229 225 283 0
229 -225 -283 0
-229 225 -283 0
-229 -225 283 0
231 230 269 0
231 -230 -269 0
-231 230 -269 0
-231 -230 269 0
232 230 277 0
232 -230 -277 0
-232 230 -277 0
-232 -230 277 0
233 230 301 0
233 -230 -301 0
-233 230 -301 0
-233 -230 301 0
235 234 251 0
235 -234 -251 0
-235 234 -251 0
-235 -234 251 0
236 234 281 0
236 -234 -281 0
-236 234 -281 0
-236 -234 281 0
240 239 246 0
240 -239 -246 0
-240 239 -246 0
-240 -239 246 0
241 239 258 0
241 -239 -258 0
-241 239 -258 0
-241 -239 258 0
242 239 262 0
242 -239 -262 0
-242 239 -262 0
-242 -239 262 0
243 239 267 0
243 -239 -267 0
-243 239 -267 0
-243 -239 267 0
244 239 296 0
244 -239 -296 0
-244 239 -296 0
-244 -239 296 0
245 239 297 0
245 -239 -297 0
-245 239 -297 0
-245 -239 297 0
247 246 281 0
247 -246 -281 0
-247 246 -281 0
-247 -246 281 0
248 246 283 0
248 -246 -283 0
-248 246 -283 0
-248 -246 283 0
249 246 289 0
249 -246 -289 0
-249 246 -289 0
-249 -246 289 0
252 251 300 0
252 -251 -300 0
-252 251 -300 0
-252 -251 300 0
254 253 276 0
254 -253 -276 0
-254 253 -276 0
-254 -253 276 0
256 255 277 0
256 -255 -277 0
-256 255 -277 0
-256 -255 277 0
257 255 283 0
257 -255 -283 0
-257 255 -283 0
-257 -255 283 0
261 260 272 0
261 -260 -272 0
-261 260 -272 0
-261 -260 272 0
263 262 264 0
263 -262 -264 0
-263 262 -264 0
-263 -262 264 0
265 264 269 0
265 -264 -269 0
-265 264 -269 0
-265 -264 269 0
266 264 308 0
266 -264 -308 0
-266 264 -308 0
-266 -264 308 0
268 267 301 0
268 -267 -301 0
-268 267 -301 0
-268 -267 301 0
270 269 281 0
270 -269 -281 0
-270 269 -281 0
-270 -269 281 0
271 269 294 0
271 -269 -294 0
-271 269 -294 0
-271 -269 294 0
273 272 303 0
273 -272 -303 0
-273 272 -303 0
-273 -272 303 0
275 274 289 0
275 -274 -289 0
-275 274 -289 0
-275 -274 289 0
278 277 297 0
278 -277 -297 0
-278 277 -297 0
-278 -277 297 0
280 279 283 0
280 -279 -283 0
-280 279 -283 0
-280 -279 283 0
282 281 298 0
282 -281 -298 0
-282 281 -298 0
-282 -281 298 0
284 283 298 0
284 -283 -298 0
-284 283 -298 0
-284 -283 298 0
285 283 307 0
285 -283 -307 0
-285 283 -307 0
-285 -283 307 0
287 286 289 0
287 -286 -289 0
-287 286 -289 0
-287 -286 289 0
288 286 301 0
288 -286 -301 0
-288 286 -301 0
-288 -286 301 0
290 289 292 0
290 -289 -292 0
-290 289 -292 0
-290 -289 292 0
293 292 296 0
293 -292 -296 0
-293 292 -296 0
-293 -292 296 0
295 294 307 0
295 -294 -307 0
-295 294 -307 0
-295 -294 307 0
